
Welcome to IBM(R) ILOG(R) CPLEX(R) Interactive Optimizer 22.1.1.0
  with Simplex, Mixed Integer & Barrier Optimizers
5725-A06 5725-A29 5724-Y48 5724-Y49 5724-Y54 5724-Y55 5655-Y21
Copyright IBM Corp. 1988, 2022.  All Rights Reserved.

Type 'help' for a list of available commands.
Type 'help' followed by a command name for more
information on commands.

CPLEX> Selected objective sense:  MINIMIZE
Selected objective  name:  00000000
Selected RHS        name:  RHS1
Selected bound      name:  BOUND
Problem 'ee.mps' read.
Read time = 0.02 sec. (3.17 ticks)
CPLEX> New value for time limit in seconds: 7200
CPLEX> New value for parallel optimization mode: -1
CPLEX> New value for default parallel thread count: 40
CPLEX> New value for mixed integer optimality gap tolerance: 1e-13
CPLEX> Version identifier: 22.1.1.0 | 2022-11-28 | 9160aff4d
CPXPARAM_Threads                                 40
CPXPARAM_Parallel                                -1
CPXPARAM_TimeLimit                               7200
CPXPARAM_MIP_Tolerances_MIPGap                   1e-13
Found incumbent of value 0.000000 after 0.00 sec. (0.31 ticks)
Tried aggregator 2 times.
MIP Presolve eliminated 182 rows and 2745 columns.
MIP Presolve modified 6090 coefficients.
Aggregator did 713 substitutions.
Reduced MIP has 3636 rows, 7840 columns, and 28952 nonzeros.
Reduced MIP has 7840 binaries, 0 generals, 0 SOSs, and 0 indicators.
Presolve time = 0.06 sec. (69.13 ticks)
Probing time = 0.03 sec. (5.77 ticks)
Tried aggregator 1 time.
Detecting symmetries...
Reduced MIP has 3636 rows, 7840 columns, and 28952 nonzeros.
Reduced MIP has 7840 binaries, 0 generals, 0 SOSs, and 0 indicators.
Presolve time = 0.03 sec. (22.11 ticks)
Probing time = 0.02 sec. (5.58 ticks)
Clique table members: 18787.
MIP emphasis: balance optimality and feasibility.
MIP search method: dynamic search.
Parallel mode: opportunistic, using up to 40 threads.
Root relaxation solution time = 0.12 sec. (87.86 ticks)

        Nodes                                         Cuts/
   Node  Left     Objective  IInf  Best Integer    Best Bound    ItCnt     Gap

*     0+    0                            0.0000  -1.54000e+13              --- 
*     0+    0                      -6.98000e+12  -1.54000e+13           120.63%
*     0+    0                      -1.05800e+13  -1.54000e+13            45.56%
*     0+    0                      -1.17800e+13  -1.54000e+13            30.73%
*     0+    0                      -1.29800e+13  -1.54000e+13            18.64%
*     0+    0                      -1.41800e+13  -1.54000e+13             8.60%
*     0+    0                      -1.53800e+13  -1.54000e+13             0.13%
      0     0  -1.53900e+13    95  -1.53800e+13  -1.53900e+13     2346    0.07%
*     0+    0                      -1.53900e+13  -1.53900e+13             0.00%
      0     0  -1.53900e+13   150  -1.53900e+13      Cuts: 87     4175    0.00%
      0     0  -1.53900e+13   130  -1.53900e+13      Cuts: 77     5099    0.00%
*     0+    0                      -1.53900e+13  -1.53900e+13             0.00%
*     0+    0                      -1.53900e+13  -1.53900e+13             0.00%
      0     0  -1.00000e+75     0  -1.53900e+13  -1.53900e+13     5099    0.00%

Repeating presolve.
Tried aggregator 3 times.
MIP Presolve eliminated 1880 rows and 4475 columns.
MIP Presolve added 132 rows and 0 columns.
MIP Presolve modified 681 coefficients.
Aggregator did 540 substitutions.
Reduced MIP has 1348 rows, 2784 columns, and 9585 nonzeros.
Reduced MIP has 2784 binaries, 0 generals, 0 SOSs, and 0 indicators.
Presolve time = 0.07 sec. (65.50 ticks)
Probing fixed 41 vars, tightened 0 bounds.
Probing time = 0.03 sec. (32.04 ticks)
Tried aggregator 2 times.
MIP Presolve eliminated 42 rows and 55 columns.
Aggregator did 12 substitutions.
Reduced MIP has 1294 rows, 2713 columns, and 9307 nonzeros.
Reduced MIP has 2713 binaries, 0 generals, 0 SOSs, and 0 indicators.
Presolve time = 0.02 sec. (15.22 ticks)
Probing time = 0.00 sec. (3.53 ticks)
Tried aggregator 1 time.
Detecting symmetries...
Reduced MIP has 1294 rows, 2713 columns, and 9307 nonzeros.
Reduced MIP has 2713 binaries, 0 generals, 0 SOSs, and 0 indicators.
Presolve time = 0.01 sec. (7.30 ticks)
Represolve time = 0.16 sec. (147.33 ticks)
Probing time = 0.00 sec. (3.49 ticks)
Clique table members: 6512.
MIP emphasis: balance optimality and feasibility.
MIP search method: dynamic search.
Parallel mode: opportunistic, using up to 40 threads.
Root relaxation solution time = 0.05 sec. (32.30 ticks)

        Nodes                                         Cuts/
   Node  Left     Objective  IInf  Best Integer    Best Bound    ItCnt     Gap

*     0+    0                      -1.53900e+13  -1.53900e+13             0.00%
      0     0  -1.53900e+13   101  -1.53900e+13  -1.53900e+13     6173    0.00%
      0     0  -1.53900e+13   101  -1.53900e+13      Cuts: 44     6263    0.00%
      0     0  -1.53900e+13   100  -1.53900e+13      Cuts: 29     6398    0.00%
      0     2  -1.53900e+13    83  -1.53900e+13  -1.53900e+13     6398    0.00%
Elapsed time = 1.73 sec. (1174.68 ticks, tree = 0.02 MB, solutions = 12)
*   421    36      integral     0  -1.53900e+13  -1.53900e+13    59291    0.00%
   2214    46    infeasible        -1.53900e+13  -1.53900e+13    80021    0.00%
   4482   168  -1.53900e+13    17  -1.53900e+13  -1.53900e+13   148203    0.00%

GUB cover cuts applied:  2
Clique cuts applied:  25
Cover cuts applied:  291
Flow cuts applied:  3
Mixed integer rounding cuts applied:  10
Zero-half cuts applied:  15
Lift and project cuts applied:  11
Gomory fractional cuts applied:  21

Root node processing (before b&c):
  Real time             =    1.47 sec. (1174.96 ticks)
Parallel b&c, 40 threads:
  Real time             =    1.14 sec. (619.91 ticks)
  Sync time (average)   =    0.33 sec.
  Wait time (average)   =    0.00 sec.
                          ------------
Total (root+branch&cut) =    2.61 sec. (1794.88 ticks)

Solution pool: 14 solutions saved.

MIP - Integer optimal solution:  Objective = -1.5389999289e+13
Solution time =    2.67 sec.  Iterations = 230410  Nodes = 4802
Deterministic time = 1794.91 ticks  (671.66 ticks/sec)

CPLEX> Solution 'p15' written to file 'ee.sol'.
CPLEX> 